

(declare-sort Char)
(define-sort Str () (Array Int Char))
(echo "Simulating signed 128 bit number domain...")
(echo "(including GNU C int128 (2's complement) and IEEE 754 binary128 overflow but excluding underflow)")
(echo "(https://gcc.gnu.org/onlinedocs/gcc/Integers-implementation.html#Integers-implementation)")
(echo "(https://gcc.gnu.org/onlinedocs/gcc/_005f_005fint128.html#g_t_005f_005fint128)")
(echo "(https://en.wikipedia.org/wiki/Quadruple-precision_floating-point_format#IEEE_754_quadruple-precision_binary_floating-point_format:_binary128)")
(define-fun MAX_MAX_INT () Int 9223372036854775807)  ;RangeDegradeMAX
(declare-fun MAX_INT () Int)                  ;RangeDegradeParam
(define-fun MIN_MAX_INT () Int 0)                     ;RangeDegradeMIN
(define-fun MIN_INT () Int (- (- MAX_INT) 1))
(define-fun MAX_REAL () Real (* (^ 2.0 1023) (- 2.0 (^ 2.0 (- 52)))))
(define-fun MIN_REAL () Real (- MAX_REAL))
;avoiding +/-/*/division/modulo overflow
(define-fun add_guard ((_1 Int)(_2 Int)) Bool (and 
	(<= MIN_INT _1)(<= _1 MAX_INT)
	(<= MIN_INT _2)(<= _2 MAX_INT)
	(<= MIN_INT (+ _1 _2))(<= (+ _1 _2) MAX_INT)
	))
(define-fun sub_guard ((_1 Int)(_2 Int)) Bool (and 
	(<= MIN_INT _1)(<= _1 MAX_INT)
	(<= MIN_INT _2)(<= _2 MAX_INT)
	(<= MIN_INT (- _1 _2))(<= (- _1 _2) MAX_INT)
))
(define-fun mul_guard ((_1 Int)(_2 Int)) Bool (and 
	(<= MIN_INT _1)(<= _1 MAX_INT)
	(<= MIN_INT _2)(<= _2 MAX_INT)
	(<= MIN_INT (* _1 _2))(<= (* _1 _2) MAX_INT)
))
(define-fun div_guard ((_1 Int)(_2 Int)) Bool (and 
	(not (= _2 0))
	(<= MIN_INT _1)(<= _1 MAX_INT)
	(<= MIN_INT _2)(<= _2 MAX_INT)
))
(define-fun mod_guard ((_1 Int)(_2 Int)) Bool (and 
	(div_guard _1 _2)
))
(declare-datatypes (PT_) ((Pointer 
				NULL
				Void
				(prim (value PT_))
				(ptr (addr Pointer)))))
(declare-sort PT)
(declare-sort Void)
(declare-fun pt2i ((Pointer PT)) Int)
(declare-fun i2pt (Int) (Pointer PT))
(declare-fun r2pt (Real) (Pointer PT))
(declare-fun b2pt (Bool) (Pointer PT))
(define-fun point ((_p (Pointer PT))) (Pointer PT)
				  (ite (is-ptr _p) (addr _p) _p) 
) 
(declare-fun depoint (PT) (Pointer PT))
(declare-const _v PT)
(declare-const _p (Pointer PT))
(assert (iff (= (depoint _v) _p) (= _v (value _p))))

(declare-fun xa1_128_DRB008-indirectaccess4-orig-yes_c_null_null_FUNCTION (Int Int ) Real)
(declare-fun _125_DRB008-indirectaccess4-orig-yes_c_chunk_size () Int)
(declare-fun _125_DRB008-indirectaccess4-orig-yes_c_t_THREAD1 () Int)
(declare-fun _125_DRB008-indirectaccess4-orig-yes_c_t_THREAD2 () Int)
(declare-fun idx_127_DRB008-indirectaccess4-orig-yes_c_FUNCTION () Int)
(declare-fun _125_DRB008-indirectaccess4-orig-yes_c_t_FUNCTION () Int)
(declare-fun i_125_4378_DRB008-indirectaccess4-orig-yes_c_FUNCTION () Int)
(declare-fun _125_DRB008-indirectaccess4-orig-yes_c_chunk_THREAD2 () Int)
(declare-fun _125_DRB008-indirectaccess4-orig-yes_c_chunk_THREAD1 () Int)
(declare-fun indexSet_69_DRB008-indirectaccess4-orig-yes_c_null_CONST () (Array Int Int))
(declare-fun nthreads () Int)
(declare-fun indexSet_69_DRB008-indirectaccess4-orig-yes_c_0_CONST () (Array Int Int))
(declare-fun base_108_DRB008-indirectaccess4-orig-yes_c () (Pointer PT))
(declare-fun indexSet_127_DRB008-indirectaccess4-orig-yes_c_null_FUNCTION () (Array Int Int))
(define-fun main ((argc_106_DRB008-indirectaccess4-orig-yes_c Int)(argv_106_DRB008-indirectaccess4-orig-yes_c (Pointer PT))) Int (ite (= base_108_DRB008-indirectaccess4-orig-yes_c (r2pt 0)) 1 0))
(declare-fun malloc (Int) PT)

(define-fun ParallelCondition () Bool (and 

(and (and (<= 0 _125_DRB008-indirectaccess4-orig-yes_c_t_THREAD1) (< 0 _125_DRB008-indirectaccess4-orig-yes_c_t_FUNCTION nthreads) (not (= _125_DRB008-indirectaccess4-orig-yes_c_chunk_THREAD1 _125_DRB008-indirectaccess4-orig-yes_c_chunk_THREAD2)) (< _125_DRB008-indirectaccess4-orig-yes_c_t_THREAD2 nthreads) (not (= _125_DRB008-indirectaccess4-orig-yes_c_t_THREAD1 _125_DRB008-indirectaccess4-orig-yes_c_t_THREAD2)) (<= 0 _125_DRB008-indirectaccess4-orig-yes_c_t_THREAD2) (< _125_DRB008-indirectaccess4-orig-yes_c_t_THREAD1 nthreads)) (<= 0 _125_DRB008-indirectaccess4-orig-yes_c_t_THREAD2 MAX_INT) (<= 0 _125_DRB008-indirectaccess4-orig-yes_c_t_THREAD1 MAX_INT) (<= 0 _125_DRB008-indirectaccess4-orig-yes_c_t_FUNCTION MAX_INT) (<= 1 nthreads MAX_INT) (<= 0 _125_DRB008-indirectaccess4-orig-yes_c_chunk_THREAD1 MAX_INT) (<= 0 _125_DRB008-indirectaccess4-orig-yes_c_chunk_THREAD2 MAX_INT))
(<= 0 _125_DRB008-indirectaccess4-orig-yes_c_t_THREAD2 MAX_INT)
(<= 0 _125_DRB008-indirectaccess4-orig-yes_c_t_THREAD1 MAX_INT)
(<= 0 _125_DRB008-indirectaccess4-orig-yes_c_t_FUNCTION MAX_INT)
(<= 1 nthreads MAX_INT)
(<= 0 _125_DRB008-indirectaccess4-orig-yes_c_chunk_THREAD1 MAX_INT)
(<= 0 _125_DRB008-indirectaccess4-orig-yes_c_chunk_THREAD2 MAX_INT)
))

;_LB,     _1,    _UB
(define-fun InCarryInRange ((_1 Int)(_LB Int)(_UB Int)) Bool (and
  (<= _LB _1)(<= _1 _UB)
))
(define-fun InCarryInRangeUB ((_1 Int)(_UB Int)) Bool (or
  (= _1 _UB)
  (< _1 _UB)
))
(define-fun InCarryInRangeLB ((_1 Int)(_LB Int)) Bool (or
  (= _1 _LB)
  (> _1 _LB)
))

(echo "Range down-grade...")
;RangeDegradeUB(define-fun InRange ((_1 Int)) Bool (InCarryInRangeUB _1 9223372036854775807))
;RangeDegradeIn(define-fun InRange ((_1 Int)) Bool (InCarryInRange _1 0 9223372036854775807))
;RangeDegradeLB(define-fun InRange ((_1 Int)) Bool (InCarryInRangeLB _1 0))
;RangeDegradeParams(assert (InRange nthreads))

(assert ParallelCondition)

(assert (= (store indexSet_69_DRB008-indirectaccess4-orig-yes_c_0_CONST 0 521) indexSet_69_DRB008-indirectaccess4-orig-yes_c_0_CONST))
(assert (= (store indexSet_69_DRB008-indirectaccess4-orig-yes_c_null_CONST 57 943) indexSet_69_DRB008-indirectaccess4-orig-yes_c_null_CONST))
(assert (= (store indexSet_69_DRB008-indirectaccess4-orig-yes_c_null_CONST 73 1199) indexSet_69_DRB008-indirectaccess4-orig-yes_c_null_CONST))
(assert (= (store indexSet_69_DRB008-indirectaccess4-orig-yes_c_null_CONST 135 1645) indexSet_69_DRB008-indirectaccess4-orig-yes_c_null_CONST))
(assert (= (store indexSet_69_DRB008-indirectaccess4-orig-yes_c_null_CONST 151 1901) indexSet_69_DRB008-indirectaccess4-orig-yes_c_null_CONST))
(assert (= (store indexSet_69_DRB008-indirectaccess4-orig-yes_c_null_CONST 10 555) indexSet_69_DRB008-indirectaccess4-orig-yes_c_null_CONST))
(assert (= (store indexSet_69_DRB008-indirectaccess4-orig-yes_c_null_CONST 88 1257) indexSet_69_DRB008-indirectaccess4-orig-yes_c_null_CONST))
(assert (= (store indexSet_69_DRB008-indirectaccess4-orig-yes_c_null_CONST 166 1959) indexSet_69_DRB008-indirectaccess4-orig-yes_c_null_CONST))
(assert (= (store indexSet_69_DRB008-indirectaccess4-orig-yes_c_null_CONST 41 869) indexSet_69_DRB008-indirectaccess4-orig-yes_c_null_CONST))
(assert (= (store indexSet_69_DRB008-indirectaccess4-orig-yes_c_null_CONST 6 547) indexSet_69_DRB008-indirectaccess4-orig-yes_c_null_CONST))
(assert (= (store indexSet_69_DRB008-indirectaccess4-orig-yes_c_null_CONST 119 1571) indexSet_69_DRB008-indirectaccess4-orig-yes_c_null_CONST))
(assert (= (store indexSet_69_DRB008-indirectaccess4-orig-yes_c_null_CONST 68 993) indexSet_69_DRB008-indirectaccess4-orig-yes_c_null_CONST))
(assert (= (store indexSet_69_DRB008-indirectaccess4-orig-yes_c_null_CONST 84 1249) indexSet_69_DRB008-indirectaccess4-orig-yes_c_null_CONST))
(assert (= (store indexSet_69_DRB008-indirectaccess4-orig-yes_c_null_CONST 162 1951) indexSet_69_DRB008-indirectaccess4-orig-yes_c_null_CONST))
(assert (= (store indexSet_69_DRB008-indirectaccess4-orig-yes_c_null_CONST 21 605) indexSet_69_DRB008-indirectaccess4-orig-yes_c_null_CONST))
(assert (= (store indexSet_69_DRB008-indirectaccess4-orig-yes_c_null_CONST 37 861) indexSet_69_DRB008-indirectaccess4-orig-yes_c_null_CONST))
(assert (= (store indexSet_69_DRB008-indirectaccess4-orig-yes_c_null_CONST 99 1307) indexSet_69_DRB008-indirectaccess4-orig-yes_c_null_CONST))
(assert (= (store indexSet_69_DRB008-indirectaccess4-orig-yes_c_null_CONST 115 1563) indexSet_69_DRB008-indirectaccess4-orig-yes_c_null_CONST))
(assert (= (store indexSet_69_DRB008-indirectaccess4-orig-yes_c_null_CONST 177 2009) indexSet_69_DRB008-indirectaccess4-orig-yes_c_null_CONST))
(assert (= (store indexSet_69_DRB008-indirectaccess4-orig-yes_c_null_CONST 52 919) indexSet_69_DRB008-indirectaccess4-orig-yes_c_null_CONST))
(assert (= (store indexSet_69_DRB008-indirectaccess4-orig-yes_c_null_CONST 130 1621) indexSet_69_DRB008-indirectaccess4-orig-yes_c_null_CONST))
(assert (= (store indexSet_69_DRB008-indirectaccess4-orig-yes_c_null_CONST 146 1877) indexSet_69_DRB008-indirectaccess4-orig-yes_c_null_CONST))
(assert (= (store indexSet_69_DRB008-indirectaccess4-orig-yes_c_null_CONST 5 531) indexSet_69_DRB008-indirectaccess4-orig-yes_c_null_CONST))
(assert (= (store indexSet_69_DRB008-indirectaccess4-orig-yes_c_null_CONST 4 529) indexSet_69_DRB008-indirectaccess4-orig-yes_c_null_CONST))
(assert (= (store indexSet_69_DRB008-indirectaccess4-orig-yes_c_null_CONST 82 1231) indexSet_69_DRB008-indirectaccess4-orig-yes_c_null_CONST))
(assert (= (store indexSet_69_DRB008-indirectaccess4-orig-yes_c_null_CONST 31 653) indexSet_69_DRB008-indirectaccess4-orig-yes_c_null_CONST))
(assert (= (store indexSet_69_DRB008-indirectaccess4-orig-yes_c_null_CONST 160 1933) indexSet_69_DRB008-indirectaccess4-orig-yes_c_null_CONST))
(assert (= (store indexSet_69_DRB008-indirectaccess4-orig-yes_c_null_CONST 113 1545) indexSet_69_DRB008-indirectaccess4-orig-yes_c_null_CONST))
(assert (= (store indexSet_69_DRB008-indirectaccess4-orig-yes_c_null_CONST 62 967) indexSet_69_DRB008-indirectaccess4-orig-yes_c_null_CONST))
(assert (= (store indexSet_69_DRB008-indirectaccess4-orig-yes_c_null_CONST 78 1223) indexSet_69_DRB008-indirectaccess4-orig-yes_c_null_CONST))
(assert (= (store indexSet_69_DRB008-indirectaccess4-orig-yes_c_null_CONST 140 1669) indexSet_69_DRB008-indirectaccess4-orig-yes_c_null_CONST))
(assert (= (store indexSet_69_DRB008-indirectaccess4-orig-yes_c_null_CONST 156 1925) indexSet_69_DRB008-indirectaccess4-orig-yes_c_null_CONST))
(assert (= (store indexSet_69_DRB008-indirectaccess4-orig-yes_c_null_CONST 15 579) indexSet_69_DRB008-indirectaccess4-orig-yes_c_null_CONST))
(assert (= (store indexSet_69_DRB008-indirectaccess4-orig-yes_c_null_CONST 93 1281) indexSet_69_DRB008-indirectaccess4-orig-yes_c_null_CONST))
(assert (= (store indexSet_69_DRB008-indirectaccess4-orig-yes_c_null_CONST 109 1537) indexSet_69_DRB008-indirectaccess4-orig-yes_c_null_CONST))
(assert (= (store indexSet_69_DRB008-indirectaccess4-orig-yes_c_null_CONST 171 1983) indexSet_69_DRB008-indirectaccess4-orig-yes_c_null_CONST))
(assert (= (store indexSet_69_DRB008-indirectaccess4-orig-yes_c_null_CONST 46 893) indexSet_69_DRB008-indirectaccess4-orig-yes_c_null_CONST))
(assert (= (store indexSet_69_DRB008-indirectaccess4-orig-yes_c_null_CONST 124 1595) indexSet_69_DRB008-indirectaccess4-orig-yes_c_null_CONST))
(assert (= (store indexSet_69_DRB008-indirectaccess4-orig-yes_c_null_CONST 77 1207) indexSet_69_DRB008-indirectaccess4-orig-yes_c_null_CONST))
(assert (= (store indexSet_69_DRB008-indirectaccess4-orig-yes_c_null_CONST 26 629) indexSet_69_DRB008-indirectaccess4-orig-yes_c_null_CONST))
(assert (= (store indexSet_69_DRB008-indirectaccess4-orig-yes_c_null_CONST 42 885) indexSet_69_DRB008-indirectaccess4-orig-yes_c_null_CONST))
(assert (= (store indexSet_69_DRB008-indirectaccess4-orig-yes_c_null_CONST 155 1909) indexSet_69_DRB008-indirectaccess4-orig-yes_c_null_CONST))
(assert (= (store indexSet_69_DRB008-indirectaccess4-orig-yes_c_null_CONST 104 1331) indexSet_69_DRB008-indirectaccess4-orig-yes_c_null_CONST))
(assert (= (store indexSet_69_DRB008-indirectaccess4-orig-yes_c_null_CONST 120 1587) indexSet_69_DRB008-indirectaccess4-orig-yes_c_null_CONST))
(assert (= (store indexSet_69_DRB008-indirectaccess4-orig-yes_c_null_CONST 58 945) indexSet_69_DRB008-indirectaccess4-orig-yes_c_null_CONST))
(assert (= (store indexSet_69_DRB008-indirectaccess4-orig-yes_c_null_CONST 74 1201) indexSet_69_DRB008-indirectaccess4-orig-yes_c_null_CONST))
(assert (= (store indexSet_69_DRB008-indirectaccess4-orig-yes_c_null_CONST 136 1647) indexSet_69_DRB008-indirectaccess4-orig-yes_c_null_CONST))
(assert (= (store indexSet_69_DRB008-indirectaccess4-orig-yes_c_null_CONST 152 1903) indexSet_69_DRB008-indirectaccess4-orig-yes_c_null_CONST))
(assert (= (store indexSet_69_DRB008-indirectaccess4-orig-yes_c_null_CONST 11 557) indexSet_69_DRB008-indirectaccess4-orig-yes_c_null_CONST))
(assert (= (store indexSet_69_DRB008-indirectaccess4-orig-yes_c_null_CONST 89 1259) indexSet_69_DRB008-indirectaccess4-orig-yes_c_null_CONST))
(assert (= (store indexSet_69_DRB008-indirectaccess4-orig-yes_c_null_CONST 54 937) indexSet_69_DRB008-indirectaccess4-orig-yes_c_null_CONST))
(assert (= (store indexSet_69_DRB008-indirectaccess4-orig-yes_c_null_CONST 167 1961) indexSet_69_DRB008-indirectaccess4-orig-yes_c_null_CONST))
(assert (= (xa1_128_DRB008-indirectaccess4-orig-yes_c_null_null_FUNCTION idx_127_DRB008-indirectaccess4-orig-yes_c_FUNCTION i_125_4378_DRB008-indirectaccess4-orig-yes_c_FUNCTION) (+ (xa1_128_DRB008-indirectaccess4-orig-yes_c_null_null_FUNCTION idx_127_DRB008-indirectaccess4-orig-yes_c_FUNCTION idx_127_DRB008-indirectaccess4-orig-yes_c_FUNCTION) 1.0)))
(assert (= (store indexSet_69_DRB008-indirectaccess4-orig-yes_c_null_CONST 132 1639) indexSet_69_DRB008-indirectaccess4-orig-yes_c_null_CONST))
(assert (= (store indexSet_69_DRB008-indirectaccess4-orig-yes_c_null_CONST 7 549) indexSet_69_DRB008-indirectaccess4-orig-yes_c_null_CONST))
(assert (= (store indexSet_69_DRB008-indirectaccess4-orig-yes_c_null_CONST 69 995) indexSet_69_DRB008-indirectaccess4-orig-yes_c_null_CONST))
(assert (= (store indexSet_69_DRB008-indirectaccess4-orig-yes_c_null_CONST 85 1251) indexSet_69_DRB008-indirectaccess4-orig-yes_c_null_CONST))
(assert (= (store indexSet_69_DRB008-indirectaccess4-orig-yes_c_null_CONST 163 1953) indexSet_69_DRB008-indirectaccess4-orig-yes_c_null_CONST))
(assert (= (store indexSet_69_DRB008-indirectaccess4-orig-yes_c_null_CONST 22 607) indexSet_69_DRB008-indirectaccess4-orig-yes_c_null_CONST))
(assert (= (store indexSet_69_DRB008-indirectaccess4-orig-yes_c_null_CONST 38 863) indexSet_69_DRB008-indirectaccess4-orig-yes_c_null_CONST))
(assert (= (store indexSet_69_DRB008-indirectaccess4-orig-yes_c_null_CONST 100 1309) indexSet_69_DRB008-indirectaccess4-orig-yes_c_null_CONST))
(assert (= (store indexSet_69_DRB008-indirectaccess4-orig-yes_c_null_CONST 116 1565) indexSet_69_DRB008-indirectaccess4-orig-yes_c_null_CONST))
(assert (= (store indexSet_69_DRB008-indirectaccess4-orig-yes_c_null_CONST 178 2011) indexSet_69_DRB008-indirectaccess4-orig-yes_c_null_CONST))
(assert (= (store indexSet_69_DRB008-indirectaccess4-orig-yes_c_null_CONST 53 921) indexSet_69_DRB008-indirectaccess4-orig-yes_c_null_CONST))
(assert (= (store indexSet_69_DRB008-indirectaccess4-orig-yes_c_null_CONST 18 599) indexSet_69_DRB008-indirectaccess4-orig-yes_c_null_CONST))
(assert (= (store indexSet_69_DRB008-indirectaccess4-orig-yes_c_null_CONST 131 1623) indexSet_69_DRB008-indirectaccess4-orig-yes_c_null_CONST))
(assert (= (store indexSet_69_DRB008-indirectaccess4-orig-yes_c_null_CONST 147 1879) indexSet_69_DRB008-indirectaccess4-orig-yes_c_null_CONST))
(assert (= (store indexSet_69_DRB008-indirectaccess4-orig-yes_c_null_CONST 1 533) indexSet_69_DRB008-indirectaccess4-orig-yes_c_null_CONST))
(assert (= (store indexSet_69_DRB008-indirectaccess4-orig-yes_c_null_CONST 96 1301) indexSet_69_DRB008-indirectaccess4-orig-yes_c_null_CONST))
(assert (= (store indexSet_69_DRB008-indirectaccess4-orig-yes_c_null_CONST 174 2003) indexSet_69_DRB008-indirectaccess4-orig-yes_c_null_CONST))
(assert (= (store indexSet_69_DRB008-indirectaccess4-orig-yes_c_null_CONST 83 1233) indexSet_69_DRB008-indirectaccess4-orig-yes_c_null_CONST))
(assert (= (store indexSet_69_DRB008-indirectaccess4-orig-yes_c_null_CONST 32 655) indexSet_69_DRB008-indirectaccess4-orig-yes_c_null_CONST))
(assert (= (store indexSet_69_DRB008-indirectaccess4-orig-yes_c_null_CONST 48 911) indexSet_69_DRB008-indirectaccess4-orig-yes_c_null_CONST))
(assert (= (store indexSet_69_DRB008-indirectaccess4-orig-yes_c_null_CONST 161 1935) indexSet_69_DRB008-indirectaccess4-orig-yes_c_null_CONST))
(assert (= (store indexSet_69_DRB008-indirectaccess4-orig-yes_c_null_CONST 126 1613) indexSet_69_DRB008-indirectaccess4-orig-yes_c_null_CONST))
(assert (= (store indexSet_69_DRB008-indirectaccess4-orig-yes_c_null_CONST 63 969) indexSet_69_DRB008-indirectaccess4-orig-yes_c_null_CONST))
(assert (= (store indexSet_69_DRB008-indirectaccess4-orig-yes_c_null_CONST 79 1225) indexSet_69_DRB008-indirectaccess4-orig-yes_c_null_CONST))
(assert (= (store indexSet_69_DRB008-indirectaccess4-orig-yes_c_null_CONST 141 1671) indexSet_69_DRB008-indirectaccess4-orig-yes_c_null_CONST))
(assert (= (store indexSet_69_DRB008-indirectaccess4-orig-yes_c_null_CONST 157 1927) indexSet_69_DRB008-indirectaccess4-orig-yes_c_null_CONST))
(assert (= (store indexSet_69_DRB008-indirectaccess4-orig-yes_c_null_CONST 16 581) indexSet_69_DRB008-indirectaccess4-orig-yes_c_null_CONST))
(assert (= (store indexSet_69_DRB008-indirectaccess4-orig-yes_c_null_CONST 94 1283) indexSet_69_DRB008-indirectaccess4-orig-yes_c_null_CONST))
(assert (= (store indexSet_69_DRB008-indirectaccess4-orig-yes_c_null_CONST 110 1539) indexSet_69_DRB008-indirectaccess4-orig-yes_c_null_CONST))
(assert (= (store indexSet_69_DRB008-indirectaccess4-orig-yes_c_null_CONST 172 1985) indexSet_69_DRB008-indirectaccess4-orig-yes_c_null_CONST))
(assert (= (store indexSet_69_DRB008-indirectaccess4-orig-yes_c_null_CONST 47 895) indexSet_69_DRB008-indirectaccess4-orig-yes_c_null_CONST))
(assert (= (store indexSet_69_DRB008-indirectaccess4-orig-yes_c_null_CONST 12 573) indexSet_69_DRB008-indirectaccess4-orig-yes_c_null_CONST))
(assert (= (store indexSet_69_DRB008-indirectaccess4-orig-yes_c_null_CONST 125 1597) indexSet_69_DRB008-indirectaccess4-orig-yes_c_null_CONST))
(assert (= (store indexSet_69_DRB008-indirectaccess4-orig-yes_c_null_CONST 90 1275) indexSet_69_DRB008-indirectaccess4-orig-yes_c_null_CONST))
(assert (= (store indexSet_69_DRB008-indirectaccess4-orig-yes_c_null_CONST 168 1977) indexSet_69_DRB008-indirectaccess4-orig-yes_c_null_CONST))
(assert (= (store indexSet_69_DRB008-indirectaccess4-orig-yes_c_null_CONST 27 631) indexSet_69_DRB008-indirectaccess4-orig-yes_c_null_CONST))
(assert (= (store indexSet_69_DRB008-indirectaccess4-orig-yes_c_null_CONST 43 887) indexSet_69_DRB008-indirectaccess4-orig-yes_c_null_CONST))
(assert (= idx_127_DRB008-indirectaccess4-orig-yes_c_FUNCTION (select indexSet_127_DRB008-indirectaccess4-orig-yes_c_null_FUNCTION i_125_4378_DRB008-indirectaccess4-orig-yes_c_FUNCTION)))
(assert (= (store indexSet_69_DRB008-indirectaccess4-orig-yes_c_null_CONST 105 1333) indexSet_69_DRB008-indirectaccess4-orig-yes_c_null_CONST))
(assert (= (store indexSet_69_DRB008-indirectaccess4-orig-yes_c_null_CONST 121 1589) indexSet_69_DRB008-indirectaccess4-orig-yes_c_null_CONST))
(assert (= (store indexSet_69_DRB008-indirectaccess4-orig-yes_c_null_CONST 24 625) indexSet_69_DRB008-indirectaccess4-orig-yes_c_null_CONST))
(assert (= (store indexSet_69_DRB008-indirectaccess4-orig-yes_c_null_CONST 137 1649) indexSet_69_DRB008-indirectaccess4-orig-yes_c_null_CONST))
(assert (= (store indexSet_69_DRB008-indirectaccess4-orig-yes_c_null_CONST 153 1905) indexSet_69_DRB008-indirectaccess4-orig-yes_c_null_CONST))
(assert (= (store indexSet_69_DRB008-indirectaccess4-orig-yes_c_null_CONST 102 1327) indexSet_69_DRB008-indirectaccess4-orig-yes_c_null_CONST))
(assert (= (store indexSet_69_DRB008-indirectaccess4-orig-yes_c_null_CONST 55 939) indexSet_69_DRB008-indirectaccess4-orig-yes_c_null_CONST))
(assert (= (store indexSet_69_DRB008-indirectaccess4-orig-yes_c_null_CONST 133 1641) indexSet_69_DRB008-indirectaccess4-orig-yes_c_null_CONST))
(assert (= (store indexSet_69_DRB008-indirectaccess4-orig-yes_c_null_CONST 8 551) indexSet_69_DRB008-indirectaccess4-orig-yes_c_null_CONST))
(assert (= (store indexSet_69_DRB008-indirectaccess4-orig-yes_c_null_CONST 70 997) indexSet_69_DRB008-indirectaccess4-orig-yes_c_null_CONST))
(assert (= (store indexSet_69_DRB008-indirectaccess4-orig-yes_c_null_CONST 86 1253) indexSet_69_DRB008-indirectaccess4-orig-yes_c_null_CONST))
(assert (= (store indexSet_69_DRB008-indirectaccess4-orig-yes_c_null_CONST 164 1955) indexSet_69_DRB008-indirectaccess4-orig-yes_c_null_CONST))
(assert (= (store indexSet_69_DRB008-indirectaccess4-orig-yes_c_null_CONST 23 609) indexSet_69_DRB008-indirectaccess4-orig-yes_c_null_CONST))
(assert (= (store indexSet_69_DRB008-indirectaccess4-orig-yes_c_null_CONST 39 865) indexSet_69_DRB008-indirectaccess4-orig-yes_c_null_CONST))
(assert (= (store indexSet_69_DRB008-indirectaccess4-orig-yes_c_null_CONST 101 1311) indexSet_69_DRB008-indirectaccess4-orig-yes_c_null_CONST))
(assert (= (store indexSet_69_DRB008-indirectaccess4-orig-yes_c_null_CONST 117 1567) indexSet_69_DRB008-indirectaccess4-orig-yes_c_null_CONST))
(assert (= (store indexSet_69_DRB008-indirectaccess4-orig-yes_c_null_CONST 66 989) indexSet_69_DRB008-indirectaccess4-orig-yes_c_null_CONST))
(assert (= (store indexSet_69_DRB008-indirectaccess4-orig-yes_c_null_CONST 179 2013) indexSet_69_DRB008-indirectaccess4-orig-yes_c_null_CONST))
(assert (= (store indexSet_69_DRB008-indirectaccess4-orig-yes_c_null_CONST 19 601) indexSet_69_DRB008-indirectaccess4-orig-yes_c_null_CONST))
(assert (= (store indexSet_69_DRB008-indirectaccess4-orig-yes_c_null_CONST 148 1881) indexSet_69_DRB008-indirectaccess4-orig-yes_c_null_CONST))
(assert (<= MIN_INT idx_127_DRB008-indirectaccess4-orig-yes_c_FUNCTION MAX_INT))
(assert (= (store indexSet_69_DRB008-indirectaccess4-orig-yes_c_null_CONST 97 1303) indexSet_69_DRB008-indirectaccess4-orig-yes_c_null_CONST))
(assert (= (store indexSet_69_DRB008-indirectaccess4-orig-yes_c_null_CONST 175 2005) indexSet_69_DRB008-indirectaccess4-orig-yes_c_null_CONST))
(assert (= (store indexSet_69_DRB008-indirectaccess4-orig-yes_c_null_CONST 34 659) indexSet_69_DRB008-indirectaccess4-orig-yes_c_null_CONST))
(assert (= (store indexSet_69_DRB008-indirectaccess4-orig-yes_c_null_CONST 50 915) indexSet_69_DRB008-indirectaccess4-orig-yes_c_null_CONST))
(assert (= (store indexSet_69_DRB008-indirectaccess4-orig-yes_c_null_CONST 33 657) indexSet_69_DRB008-indirectaccess4-orig-yes_c_null_CONST))
(assert (= (store indexSet_69_DRB008-indirectaccess4-orig-yes_c_null_CONST 49 913) indexSet_69_DRB008-indirectaccess4-orig-yes_c_null_CONST))
(assert (= (store indexSet_69_DRB008-indirectaccess4-orig-yes_c_null_CONST 127 1615) indexSet_69_DRB008-indirectaccess4-orig-yes_c_null_CONST))
(assert (= (store indexSet_69_DRB008-indirectaccess4-orig-yes_c_null_CONST 2 525) indexSet_69_DRB008-indirectaccess4-orig-yes_c_null_CONST))
(assert (= (store indexSet_69_DRB008-indirectaccess4-orig-yes_c_null_CONST 64 971) indexSet_69_DRB008-indirectaccess4-orig-yes_c_null_CONST))
(assert (= (store indexSet_69_DRB008-indirectaccess4-orig-yes_c_null_CONST 80 1227) indexSet_69_DRB008-indirectaccess4-orig-yes_c_null_CONST))
(assert (= (store indexSet_69_DRB008-indirectaccess4-orig-yes_c_null_CONST 142 1673) indexSet_69_DRB008-indirectaccess4-orig-yes_c_null_CONST))
(assert (= (store indexSet_69_DRB008-indirectaccess4-orig-yes_c_null_CONST 158 1929) indexSet_69_DRB008-indirectaccess4-orig-yes_c_null_CONST))
(assert (= (store indexSet_69_DRB008-indirectaccess4-orig-yes_c_null_CONST 17 583) indexSet_69_DRB008-indirectaccess4-orig-yes_c_null_CONST))
(assert (= (store indexSet_69_DRB008-indirectaccess4-orig-yes_c_null_CONST 95 1285) indexSet_69_DRB008-indirectaccess4-orig-yes_c_null_CONST))
(assert (= (store indexSet_69_DRB008-indirectaccess4-orig-yes_c_null_CONST 111 1541) indexSet_69_DRB008-indirectaccess4-orig-yes_c_null_CONST))
(assert (= (store indexSet_69_DRB008-indirectaccess4-orig-yes_c_null_CONST 60 963) indexSet_69_DRB008-indirectaccess4-orig-yes_c_null_CONST))
(assert (= (store indexSet_69_DRB008-indirectaccess4-orig-yes_c_null_CONST 173 1987) indexSet_69_DRB008-indirectaccess4-orig-yes_c_null_CONST))
(assert (= (store indexSet_69_DRB008-indirectaccess4-orig-yes_c_null_CONST 138 1665) indexSet_69_DRB008-indirectaccess4-orig-yes_c_null_CONST))
(assert (= (store indexSet_69_DRB008-indirectaccess4-orig-yes_c_null_CONST 13 575) indexSet_69_DRB008-indirectaccess4-orig-yes_c_null_CONST))
(assert (= (store indexSet_69_DRB008-indirectaccess4-orig-yes_c_null_CONST 91 1277) indexSet_69_DRB008-indirectaccess4-orig-yes_c_null_CONST))
(assert (= (store indexSet_69_DRB008-indirectaccess4-orig-yes_c_null_CONST 169 1979) indexSet_69_DRB008-indirectaccess4-orig-yes_c_null_CONST))
(assert (= (store indexSet_69_DRB008-indirectaccess4-orig-yes_c_null_CONST 28 633) indexSet_69_DRB008-indirectaccess4-orig-yes_c_null_CONST))
(assert (= (store indexSet_69_DRB008-indirectaccess4-orig-yes_c_null_CONST 44 889) indexSet_69_DRB008-indirectaccess4-orig-yes_c_null_CONST))
(assert (= (store indexSet_69_DRB008-indirectaccess4-orig-yes_c_null_CONST 106 1335) indexSet_69_DRB008-indirectaccess4-orig-yes_c_null_CONST))
(assert (= (store indexSet_69_DRB008-indirectaccess4-orig-yes_c_null_CONST 122 1591) indexSet_69_DRB008-indirectaccess4-orig-yes_c_null_CONST))
(assert (= (store indexSet_69_DRB008-indirectaccess4-orig-yes_c_null_CONST 59 947) indexSet_69_DRB008-indirectaccess4-orig-yes_c_null_CONST))
(assert (= (store indexSet_69_DRB008-indirectaccess4-orig-yes_c_null_CONST 75 1203) indexSet_69_DRB008-indirectaccess4-orig-yes_c_null_CONST))
(assert (= (store indexSet_69_DRB008-indirectaccess4-orig-yes_c_null_CONST 103 1329) indexSet_69_DRB008-indirectaccess4-orig-yes_c_null_CONST))
(assert (= (store indexSet_69_DRB008-indirectaccess4-orig-yes_c_null_CONST 56 941) indexSet_69_DRB008-indirectaccess4-orig-yes_c_null_CONST))
(assert (= (store indexSet_69_DRB008-indirectaccess4-orig-yes_c_null_CONST 72 1197) indexSet_69_DRB008-indirectaccess4-orig-yes_c_null_CONST))
(assert (= (store indexSet_69_DRB008-indirectaccess4-orig-yes_c_null_CONST 134 1643) indexSet_69_DRB008-indirectaccess4-orig-yes_c_null_CONST))
(assert (= (store indexSet_69_DRB008-indirectaccess4-orig-yes_c_null_CONST 150 1899) indexSet_69_DRB008-indirectaccess4-orig-yes_c_null_CONST))
(assert (= (store indexSet_69_DRB008-indirectaccess4-orig-yes_c_null_CONST 9 553) indexSet_69_DRB008-indirectaccess4-orig-yes_c_null_CONST))
(assert (= (store indexSet_69_DRB008-indirectaccess4-orig-yes_c_null_CONST 71 999) indexSet_69_DRB008-indirectaccess4-orig-yes_c_null_CONST))
(assert (= (store indexSet_69_DRB008-indirectaccess4-orig-yes_c_null_CONST 87 1255) indexSet_69_DRB008-indirectaccess4-orig-yes_c_null_CONST))
(assert (= (store indexSet_69_DRB008-indirectaccess4-orig-yes_c_null_CONST 165 1957) indexSet_69_DRB008-indirectaccess4-orig-yes_c_null_CONST))
(assert (= (store indexSet_69_DRB008-indirectaccess4-orig-yes_c_null_CONST 40 867) indexSet_69_DRB008-indirectaccess4-orig-yes_c_null_CONST))
(assert (= (store indexSet_69_DRB008-indirectaccess4-orig-yes_c_null_CONST 118 1569) indexSet_69_DRB008-indirectaccess4-orig-yes_c_null_CONST))
(assert (<= MIN_INT _125_DRB008-indirectaccess4-orig-yes_c_t_THREAD1 MAX_INT))
(assert (= (store indexSet_69_DRB008-indirectaccess4-orig-yes_c_null_CONST 67 991) indexSet_69_DRB008-indirectaccess4-orig-yes_c_null_CONST))
(assert (= (store indexSet_69_DRB008-indirectaccess4-orig-yes_c_null_CONST 20 603) indexSet_69_DRB008-indirectaccess4-orig-yes_c_null_CONST))
(assert (= (store indexSet_69_DRB008-indirectaccess4-orig-yes_c_null_CONST 36 859) indexSet_69_DRB008-indirectaccess4-orig-yes_c_null_CONST))
(assert (= (store indexSet_69_DRB008-indirectaccess4-orig-yes_c_null_CONST 149 1883) indexSet_69_DRB008-indirectaccess4-orig-yes_c_null_CONST))
(assert (= (store indexSet_69_DRB008-indirectaccess4-orig-yes_c_null_CONST 98 1305) indexSet_69_DRB008-indirectaccess4-orig-yes_c_null_CONST))
(assert (= (store indexSet_69_DRB008-indirectaccess4-orig-yes_c_null_CONST 114 1561) indexSet_69_DRB008-indirectaccess4-orig-yes_c_null_CONST))
(assert (= (store indexSet_69_DRB008-indirectaccess4-orig-yes_c_null_CONST 176 2007) indexSet_69_DRB008-indirectaccess4-orig-yes_c_null_CONST))
(assert (= (store indexSet_69_DRB008-indirectaccess4-orig-yes_c_null_CONST 35 661) indexSet_69_DRB008-indirectaccess4-orig-yes_c_null_CONST))
(assert (= (store indexSet_69_DRB008-indirectaccess4-orig-yes_c_null_CONST 51 917) indexSet_69_DRB008-indirectaccess4-orig-yes_c_null_CONST))
(assert (= (store indexSet_69_DRB008-indirectaccess4-orig-yes_c_null_CONST 129 1619) indexSet_69_DRB008-indirectaccess4-orig-yes_c_null_CONST))
(assert (= (store indexSet_69_DRB008-indirectaccess4-orig-yes_c_null_CONST 145 1875) indexSet_69_DRB008-indirectaccess4-orig-yes_c_null_CONST))
(assert (= (store indexSet_69_DRB008-indirectaccess4-orig-yes_c_null_CONST 128 1617) indexSet_69_DRB008-indirectaccess4-orig-yes_c_null_CONST))
(assert (= (store indexSet_69_DRB008-indirectaccess4-orig-yes_c_null_CONST 144 1873) indexSet_69_DRB008-indirectaccess4-orig-yes_c_null_CONST))
(assert (= (store indexSet_69_DRB008-indirectaccess4-orig-yes_c_null_CONST 3 527) indexSet_69_DRB008-indirectaccess4-orig-yes_c_null_CONST))
(assert (= (store indexSet_69_DRB008-indirectaccess4-orig-yes_c_null_CONST 65 973) indexSet_69_DRB008-indirectaccess4-orig-yes_c_null_CONST))
(assert (= (store indexSet_69_DRB008-indirectaccess4-orig-yes_c_null_CONST 81 1229) indexSet_69_DRB008-indirectaccess4-orig-yes_c_null_CONST))
(assert (= (store indexSet_69_DRB008-indirectaccess4-orig-yes_c_null_CONST 30 651) indexSet_69_DRB008-indirectaccess4-orig-yes_c_null_CONST))
(assert (= (store indexSet_69_DRB008-indirectaccess4-orig-yes_c_null_CONST 143 1675) indexSet_69_DRB008-indirectaccess4-orig-yes_c_null_CONST))
(assert (= (store indexSet_69_DRB008-indirectaccess4-orig-yes_c_null_CONST 159 1931) indexSet_69_DRB008-indirectaccess4-orig-yes_c_null_CONST))
(assert (= (store indexSet_69_DRB008-indirectaccess4-orig-yes_c_null_CONST 112 1543) indexSet_69_DRB008-indirectaccess4-orig-yes_c_null_CONST))
(assert (= (store indexSet_69_DRB008-indirectaccess4-orig-yes_c_null_CONST 61 965) indexSet_69_DRB008-indirectaccess4-orig-yes_c_null_CONST))
(assert (= (store indexSet_69_DRB008-indirectaccess4-orig-yes_c_null_CONST 139 1667) indexSet_69_DRB008-indirectaccess4-orig-yes_c_null_CONST))
(assert (= (store indexSet_69_DRB008-indirectaccess4-orig-yes_c_null_CONST 14 577) indexSet_69_DRB008-indirectaccess4-orig-yes_c_null_CONST))
(assert (= (store indexSet_69_DRB008-indirectaccess4-orig-yes_c_null_CONST 92 1279) indexSet_69_DRB008-indirectaccess4-orig-yes_c_null_CONST))
(assert (= (store indexSet_69_DRB008-indirectaccess4-orig-yes_c_null_CONST 108 1535) indexSet_69_DRB008-indirectaccess4-orig-yes_c_null_CONST))
(assert (= (store indexSet_69_DRB008-indirectaccess4-orig-yes_c_null_CONST 170 1981) indexSet_69_DRB008-indirectaccess4-orig-yes_c_null_CONST))
(assert (= (store indexSet_69_DRB008-indirectaccess4-orig-yes_c_null_CONST 29 635) indexSet_69_DRB008-indirectaccess4-orig-yes_c_null_CONST))
(assert (= (store indexSet_69_DRB008-indirectaccess4-orig-yes_c_null_CONST 45 891) indexSet_69_DRB008-indirectaccess4-orig-yes_c_null_CONST))
(assert (= (store indexSet_69_DRB008-indirectaccess4-orig-yes_c_null_CONST 107 1337) indexSet_69_DRB008-indirectaccess4-orig-yes_c_null_CONST))
(assert (= (store indexSet_69_DRB008-indirectaccess4-orig-yes_c_null_CONST 123 1593) indexSet_69_DRB008-indirectaccess4-orig-yes_c_null_CONST))
(assert (= (store indexSet_69_DRB008-indirectaccess4-orig-yes_c_null_CONST 76 1205) indexSet_69_DRB008-indirectaccess4-orig-yes_c_null_CONST))
(assert (= (store indexSet_69_DRB008-indirectaccess4-orig-yes_c_null_CONST 25 627) indexSet_69_DRB008-indirectaccess4-orig-yes_c_null_CONST))
(assert (= (store indexSet_69_DRB008-indirectaccess4-orig-yes_c_null_CONST 154 1907) indexSet_69_DRB008-indirectaccess4-orig-yes_c_null_CONST))

(check-sat)
(get-model)
(exit)